
Gurobi 11.0.0 (win64, C++) logging started Mon Jul 28 18:51:03 2025

Set parameter TokenServer to value "141.76.38.119"
### START HEURISTIC APPROACH APPROACH ###
ProblemVariant: 1
### START PREPROCESSING ###
## Start start solution procedure ##
Start solution with 8 Vehicles and total costs 863.256 in 15.0411 s.
### END PREPROCESSING ###
Route 0 0-2-5-1-4-0 : weight util 0.822222 | volume util 0.555689 | infeasible with packing heuristic | feasible with CP model
Route 1 0-18-0 : weight util 0.033333 | volume util 0.292667 | infeasible with packing heuristic | feasible with CP model
Route 2 0-16-13-7-12-0 : weight util 0.127778 | volume util 0.562578 | infeasible with packing heuristic | feasible with CP model
Route 3 0-26-29-6-22-0 : weight util 0.344444 | volume util 0.625844 | infeasible with packing heuristic | feasible with CP model
Route 4 0-3-24-25-27-28-0 : weight util 0.372222 | volume util 0.700222 | infeasible with packing heuristic | feasible with CP model
Route 5 0-15-9-17-11-10-0 : weight util 0.444444 | volume util 0.732578 | infeasible with packing heuristic | feasible with CP model
Route 6 0-20-19-21-14-8-23-0 : weight util 0.688889 | volume util 0.550178 | infeasible with packing heuristic | feasible with CP model
